BAYES
196
2 2 2 2 2 2 2 2 2 2 2 2 2 2 2 2 2 2 2 2 2 2 2 2 2 2 2 2 2 2 2 2 2 2 2 2 2 2 2 2 2 2 2 2 2 2 2 2 2 2 2 2 2 2 2 2 2 2 2 2 2 2 2 2 2 2 2 2 2 2 2 2 2 2 2 2 2 2 2 2 2 2 2 2 2 2 2 2 2 2 2 2 2 2 2 2 2 2 2 2 2 2 2 2 2 2 2 2 2 2 2 2 2 2 2 2 2 2 2 2 2 2 2 2 2 2 2 2 2 2 2 2 2 2 2 2 2 2 2 2 2 2 2 2 2 2 2 2 2 2 2 2 2 2 2 2 2 2 2 2 2 2 2 2 2 2 2 2 2 2 2 2 2 2 2 2 2 2 2 2 2 2 2 2 2 2 2 2 2 2 2 2 2 2 2 2
196
3 14 1 0
3 15 2 1
3 16 3 2
3 17 4 3
3 18 5 4
3 19 6 5
3 20 7 6
3 21 8 7
3 22 9 8
3 23 10 9
3 24 11 10
3 25 12 11
3 26 13 12
2 27 13
3 28 15 14
3 29 16 15
3 30 17 16
3 31 18 17
3 32 19 18
3 33 20 19
3 34 21 20
3 35 22 21
3 36 23 22
3 37 24 23
3 38 25 24
3 39 26 25
3 40 27 26
2 41 27
3 42 29 28
3 43 30 29
3 44 31 30
3 45 32 31
3 46 33 32
3 47 34 33
3 48 35 34
3 49 36 35
3 50 37 36
3 51 38 37
3 52 39 38
3 53 40 39
3 54 41 40
2 55 41
3 56 43 42
3 57 44 43
3 58 45 44
3 59 46 45
3 60 47 46
3 61 48 47
3 62 49 48
3 63 50 49
3 64 51 50
3 65 52 51
3 66 53 52
3 67 54 53
3 68 55 54
2 69 55
3 70 57 56
3 71 58 57
3 72 59 58
3 73 60 59
3 74 61 60
3 75 62 61
3 76 63 62
3 77 64 63
3 78 65 64
3 79 66 65
3 80 67 66
3 81 68 67
3 82 69 68
2 83 69
3 84 71 70
3 85 72 71
3 86 73 72
3 87 74 73
3 88 75 74
3 89 76 75
3 90 77 76
3 91 78 77
3 92 79 78
3 93 80 79
3 94 81 80
3 95 82 81
3 96 83 82
2 97 83
3 98 85 84
3 99 86 85
3 100 87 86
3 101 88 87
3 102 89 88
3 103 90 89
3 104 91 90
3 105 92 91
3 106 93 92
3 107 94 93
3 108 95 94
3 109 96 95
3 110 97 96
2 111 97
3 112 99 98
3 113 100 99
3 114 101 100
3 115 102 101
3 116 103 102
3 117 104 103
3 118 105 104
3 119 106 105
3 120 107 106
3 121 108 107
3 122 109 108
3 123 110 109
3 124 111 110
2 125 111
3 126 113 112
3 127 114 113
3 128 115 114
3 129 116 115
3 130 117 116
3 131 118 117
3 132 119 118
3 133 120 119
3 134 121 120
3 135 122 121
3 136 123 122
3 137 124 123
3 138 125 124
2 139 125
3 140 127 126
3 141 128 127
3 142 129 128
3 143 130 129
3 144 131 130
3 145 132 131
3 146 133 132
3 147 134 133
3 148 135 134
3 149 136 135
3 150 137 136
3 151 138 137
3 152 139 138
2 153 139
3 154 141 140
3 155 142 141
3 156 143 142
3 157 144 143
3 158 145 144
3 159 146 145
3 160 147 146
3 161 148 147
3 162 149 148
3 163 150 149
3 164 151 150
3 165 152 151
3 166 153 152
2 167 153
3 168 155 154
3 169 156 155
3 170 157 156
3 171 158 157
3 172 159 158
3 173 160 159
3 174 161 160
3 175 162 161
3 176 163 162
3 177 164 163
3 178 165 164
3 179 166 165
3 180 167 166
2 181 167
3 182 169 168
3 183 170 169
3 184 171 170
3 185 172 171
3 186 173 172
3 187 174 173
3 188 175 174
3 189 176 175
3 190 177 176
3 191 178 177
3 192 179 178
3 193 180 179
3 194 181 180
2 195 181
2 183 182
2 184 183
2 185 184
2 186 185
2 187 186
2 188 187
2 189 188
2 190 189
2 191 190
2 192 191
2 193 192
2 194 193
2 195 194
1  195
8
0 1 0 1 0 1 0 1
8
1 0 0 1 1 0 1 0
8
0 1 0 1 1 0 0 1
8
0 1 0 1 0 1 0 1
8
1 0 1 0 0 1 1 0
8
0 1 1 0 0 1 1 0
8
1 0 1 0 0 1 1 0
8
1 0 0 1 1 0 1 0
8
0 1 1 0 1 0 0 1
8
1 0 1 0 0 1 0 1
8
0 1 1 0 0 1 1 0
8
0 1 1 0 0 1 0 1
8
0 1 1 0 1 0 0 1
4
1 0 0 1
8
1 0 0 1 1 0 0 1
8
0 1 1 0 1 0 0 1
8
1 0 0 1 0 1 0 1
8
1 0 1 0 1 0 0 1
8
1 0 0 1 1 0 0 1
8
1 0 0 1 0 1 1 0
8
0 1 1 0 0 1 1 0
8
1 0 0 1 0 1 1 0
8
0 1 1 0 0 1 1 0
8
1 0 0 1 1 0 0 1
8
0 1 0 1 1 0 1 0
8
1 0 0 1 1 0 1 0
8
0 1 1 0 0 1 0 1
4
0 1 0 1
8
1 0 0 1 1 0 1 0
8
0 1 1 0 0 1 0 1
8
0 1 1 0 1 0 1 0
8
0 1 0 1 0 1 1 0
8
1 0 1 0 1 0 1 0
8
0.1929887792850698 0.8070112207149303 0.6862047229714942 0.31379527702850574 0.8970535025395523 0.10294649746044765 0.9457551735002999 0.05424482649970003
8
1 0 1 0 0 1 1 0
8
0 1 1 0 0 1 1 0
8
1 0 0 1 1 0 1 0
8
1 0 0 1 1 0 1 0
8
0 1 0 1 1 0 0 1
8
1 0 1 0 1 0 1 0
8
1 0 1 0 0 1 1 0
4
1 0 1 0
8
0.5253071113463189 0.4746928886536811 0.41819201587598764 0.5818079841240124 0.3228916579449 0.6771083420551 0.26424730030407423 0.7357526996959257
8
1 0 1 0 0 1 1 0
8
1 0 0 1 1 0 0 1
8
1 0 1 0 1 0 1 0
8
1 0 1 0 1 0 0 1
8
1 0 1 0 0 1 0 1
8
1 0 0 1 1 0 1 0
8
1 0 0 1 0 1 0 1
8
0.7481615976062601 0.2518384023937399 0.18253601588243096 0.817463984117569 0.35526695433658556 0.6447330456634144 0.4578484916805495 0.5421515083194506
8
1 0 1 0 0 1 0 1
8
1 0 0 1 1 0 0 1
8
1 0 1 0 1 0 0 1
8
0.4056973665084182 0.5943026334915819 0.6197491734321556 0.3802508265678443 0.4407502029774584 0.5592497970225415 0.40933377147973155 0.5906662285202684
4
1 0 1 0
8
1 0 0 1 0 1 0 1
8
0 1 0 1 1 0 0 1
8
1 0 1 0 0 1 0 1
8
0 1 0 1 1 0 1 0
8
1 0 1 0 0 1 1 0
8
1 0 1 0 1 0 0 1
8
0 1 0 1 0 1 0 1
8
0 1 1 0 0 1 0 1
8
0.5777705594545499 0.4222294405454502 0.40680194323209706 0.5931980567679029 0.22244154914989273 0.7775584508501072 0.7869098947424398 0.21309010525756023
8
0 1 1 0 1 0 1 0
8
1 0 0 1 0 1 1 0
8
1 0 1 0 0 1 0 1
8
0 1 1 0 1 0 1 0
4
0 1 0 1
8
1 0 0 1 1 0 0 1
8
0 1 1 0 0 1 1 0
8
1 0 1 0 0 1 0 1
8
1 0 0 1 0 1 1 0
8
0 1 0 1 0 1 0 1
8
0 1 1 0 1 0 1 0
8
1 0 0 1 1 0 1 0
8
0.8521708820137879 0.14782911798621215 0.7467726783296446 0.25322732167035544 0.3467946408799631 0.6532053591200369 0.6092968190527969 0.3907031809472032
8
0.2963134731012716 0.7036865268987283 0.28473003334482966 0.7152699666551703 0.12621163131245444 0.8737883686875455 0.5698744207585467 0.43012557924145345
8
0 1 1 0 0 1 0 1
8
0.6031911180011352 0.3968088819988648 0.13543653770530933 0.8645634622946907 0.18806384347249674 0.8119361565275033 0.5432032297915094 0.4567967702084906
8
1 0 0 1 1 0 1 0
8
1 0 1 0 0 1 1 0
4
1 0 1 0
8
1 0 0 1 1 0 1 0
8
1 0 1 0 1 0 1 0
8
0.6365395642456153 0.3634604357543847 0.2571587015156474 0.7428412984843525 0.6849715948960561 0.31502840510394403 0.05592350681521312 0.9440764931847869
8
0 1 1 0 1 0 0 1
8
0 1 0 1 0 1 0 1
8
0 1 1 0 0 1 0 1
8
0 1 1 0 0 1 1 0
8
1 0 1 0 1 0 0 1
8
1 0 0 1 1 0 1 0
8
1 0 1 0 0 1 1 0
8
0 1 0 1 0 1 0 1
8
0 1 1 0 0 1 0 1
8
0 1 0 1 0 1 1 0
4
0 1 0 1
8
1 0 1 0 1 0 0 1
8
0 1 1 0 1 0 0 1
8
0 1 0 1 0 1 0 1
8
1 0 1 0 0 1 1 0
8
0 1 0 1 0 1 0 1
8
0 1 0 1 1 0 0 1
8
0 1 0 1 1 0 0 1
8
0 1 0 1 1 0 0 1
8
0 1 0 1 1 0 0 1
8
1 0 0 1 1 0 0 1
8
1 0 0 1 0 1 1 0
8
1 0 0 1 1 0 0 1
8
0 1 1 0 1 0 0 1
4
0 1 0 1
8
1 0 1 0 1 0 0 1
8
1 0 0 1 0 1 0 1
8
0 1 1 0 0 1 1 0
8
0.07211452373805512 0.9278854762619448 0.700112990122265 0.29988700987773487 0.46187565983189405 0.538124340168106 0.5894581671014975 0.4105418328985025
8
0.22005123430536683 0.7799487656946331 0.6220272460776436 0.37797275392235646 0.5413036119585641 0.45869638804143587 0.4476701090274497 0.5523298909725504
8
1 0 0 1 1 0 0 1
8
0 1 1 0 1 0 0 1
8
0 1 0 1 0 1 0 1
8
0 1 1 0 0 1 1 0
8
1 0 1 0 1 0 0 1
8
0 1 0 1 1 0 1 0
8
1 0 0 1 1 0 1 0
8
0 1 0 1 0 1 1 0
4
1 0 0 1
8
0 1 0 1 1 0 0 1
8
0 1 0 1 1 0 1 0
8
1 0 0 1 0 1 1 0
8
1 0 0 1 1 0 0 1
8
0 1 1 0 0 1 1 0
8
1 0 0 1 0 1 0 1
8
1 0 0 1 1 0 1 0
8
1 0 0 1 0 1 0 1
8
1 0 1 0 1 0 0 1
8
0.8095612247264369 0.1904387752735631 0.6688442776625957 0.33115572233740426 0.7652810699200403 0.23471893007995964 0.05528681646843059 0.9447131835315694
8
1 0 0 1 1 0 1 0
8
1 0 0 1 1 0 0 1
8
0 1 1 0 0 1 0 1
4
0 1 0 1
8
1 0 1 0 0 1 0 1
8
0 1 1 0 1 0 1 0
8
1 0 1 0 1 0 0 1
8
0 1 0 1 0 1 0 1
8
0 1 1 0 0 1 1 0
8
0 1 0 1 0 1 1 0
8
0 1 1 0 1 0 1 0
8
1 0 0 1 1 0 0 1
8
1 0 1 0 1 0 1 0
8
0.8877970217163474 0.11220297828365254 0.4440836285000207 0.5559163714999793 0.7894043076955389 0.21059569230446093 0.1689581076955993 0.8310418923044006
8
0 1 0 1 1 0 0 1
8
0 1 0 1 1 0 0 1
8
1 0 1 0 1 0 0 1
4
0 1 0 1
8
0.4623427318242678 0.5376572681757322 0.33091224132829317 0.6690877586717068 0.15776503993949098 0.842234960060509 0.3106882861505357 0.6893117138494643
8
1 0 1 0 1 0 1 0
8
1 0 1 0 0 1 0 1
8
0 1 1 0 0 1 0 1
8
0.564477966374639 0.435522033625361 0.6392712982125665 0.36072870178743355 0.35860436741316115 0.6413956325868388 0.3786343943637527 0.6213656056362473
8
0 1 0 1 1 0 0 1
8
1 0 1 0 0 1 0 1
8
1 0 0 1 1 0 0 1
8
0 1 0 1 1 0 0 1
8
1 0 1 0 1 0 0 1
8
0 1 0 1 0 1 1 0
8
0 1 1 0 1 0 1 0
8
1 0 0 1 1 0 1 0
4
0 1 0 1
8
0 1 1 0 0 1 1 0
8
0 1 0 1 1 0 0 1
8
0.41014802120936955 0.5898519787906304 0.49240351048843606 0.507596489511564 0.6508327219827766 0.34916727801722336 0.625363310065767 0.3746366899342331
8
0 1 0 1 0 1 0 1
8
0 1 1 0 1 0 1 0
8
1 0 0 1 0 1 1 0
8
1 0 1 0 1 0 1 0
8
0 1 0 1 0 1 0 1
8
0 1 0 1 1 0 1 0
8
0 1 0 1 1 0 0 1
8
1 0 0 1 1 0 1 0
8
0 1 0 1 1 0 0 1
8
0.4795729821745011 0.5204270178254989 0.3451631395742956 0.6548368604257043 0.4152306656109575 0.5847693343890424 0.11099329074865143 0.8890067092513486
4
0.4975667500467028 0.5024332499532972 0.45522735460516794 0.5447726453948321
4
1 0 1 0
4
1 0 0 1
4
1 0 1 0
4
1 0 0 1
4
0.8573695701787493 0.1426304298212507 0.43232354447258586 0.5676764555274141
4
0.41624235724936925 0.5837576427506308 0.018205906227881846 0.9817940937721181
4
0 1 0 1
4
0 1 1 0
4
0 1 1 0
4
1 0 1 0
4
0 1 0 1
4
0 1 0 1
4
1 0 0 1
2
0 1
